(set-info :source |printed by MathSAT|)
(declare-fun call_moesi.ite26 () Int)
(declare-fun call_moesi.invalid_mo () Int)
(declare-fun call_moesi.ite20 () Int)
(declare-fun erreur_mo () Bool)
(declare-fun call_moesi.ite23 () Int)
(declare-fun call_moesi.exclusive_mo () Int)
(declare-fun call_moesi.ite31 () Int)
(declare-fun call_moesi.ite8 () Int)
(declare-fun call_moesi.garde_mo1 () Bool)
(declare-fun call_Sofar.flby () Bool)
(declare-fun call_moesi.ite24 () Int)
(declare-fun call_moesi.ite11 () Int)
(declare-fun call_moesi.ite17 () Int)
(declare-fun call_moesi.flby3 () Int)
(declare-fun call_moesi.ite12 () Int)
(declare-fun call_excludes4.excludes () Bool)
(declare-fun call_moesi.ite7 () Int)
(declare-fun call_moesi.ite34 () Int)
(declare-fun call_moesi.ite13 () Int)
(declare-fun call_moesi.ite3 () Int)
(declare-fun call_Sofar.Sofar () Bool)
(declare-fun call_moesi.flby6 () Int)
(declare-fun call_moesi.flby4 () Int)
(declare-fun call_moesi.ite9 () Int)
(declare-fun call_moesi.ite16 () Int)
(declare-fun owned_mo () Int)
(declare-fun call_moesi.ite33 () Int)
(declare-fun call_moesi.flby () Bool)
(declare-fun call_moesi.ite19 () Int)
(declare-fun shared_mo () Int)
(declare-fun call_moesi.ite10 () Int)
(declare-fun modified_mo () Int)
(declare-fun _OK_ () Bool)
(declare-fun call_moesi.flby2 () Int)
(declare-fun call_moesi.ite30 () Int)
(declare-fun param_etat_mo4 () Bool)
(declare-fun call_moesi.garde_mo3 () Bool)
(declare-fun call_moesi.modified_mo () Int)
(declare-fun call_moesi.shared_mo () Int)
(declare-fun call_moesi.ite2 () Int)
(declare-fun call_moesi.ite28 () Int)
(declare-fun call_moesi.ite () Int)
(declare-fun flby () Bool)
(declare-fun call_moesi.ite6 () Int)
(declare-fun call_moesi.ite4 () Int)
(declare-fun param_etat_mo1 () Bool)
(declare-fun call_moesi.ite32 () Int)
(declare-fun call_moesi.owned_mo () Int)
(declare-fun exclusive_mo () Int)
(declare-fun call_moesi.ite25 () Int)
(declare-fun call_moesi.ite29 () Int)
(declare-fun call_moesi.ite14 () Int)
(declare-fun call_moesi.ite22 () Int)
(declare-fun param_init_invalid_mo () Int)
(declare-fun call_moesi.ite27 () Int)
(declare-fun call_moesi.garde_mo4 () Bool)
(declare-fun param_etat_mo2 () Bool)
(declare-fun call_moesi.ite21 () Int)
(declare-fun call_moesi.erreur_mo () Bool)
(declare-fun invalid_mo () Int)
(declare-fun call_moesi.ite18 () Int)
(declare-fun call_moesi.ite15 () Int)
(declare-fun param_etat_mo3 () Bool)
(declare-fun env () Bool)
(declare-fun call_moesi.ite5 () Int)
(declare-fun call_moesi.flby5 () Int)
(define-fun .def_926 () Bool (= call_Sofar.flby call_Sofar.Sofar))
(define-fun .def_921 () Bool (and param_etat_mo4 param_etat_mo3))
(define-fun .def_919 () Bool (and param_etat_mo4 param_etat_mo2))
(define-fun .def_917 () Bool (and param_etat_mo2 param_etat_mo3))
(define-fun .def_915 () Bool (and param_etat_mo4 param_etat_mo1))
(define-fun .def_913 () Bool (and param_etat_mo1 param_etat_mo3))
(define-fun .def_912 () Bool (and param_etat_mo2 param_etat_mo1))
(define-fun .def_914 () Bool (or .def_912 .def_913))
(define-fun .def_916 () Bool (or .def_914 .def_915))
(define-fun .def_918 () Bool (or .def_916 .def_917))
(define-fun .def_920 () Bool (or .def_918 .def_919))
(define-fun .def_922 () Bool (or .def_920 .def_921))
(define-fun .def_923 () Bool (not .def_922))
(define-fun .def_924 () Bool (= call_excludes4.excludes .def_923))
(define-fun .def_910 () Bool (= call_moesi.flby call_moesi.erreur_mo))
(define-fun .def_908 () Bool (= call_moesi.flby6 call_moesi.owned_mo))
(define-fun .def_906 () Bool (= call_moesi.flby5 call_moesi.invalid_mo))
(define-fun .def_904 () Bool (= call_moesi.flby4 call_moesi.shared_mo))
(define-fun .def_902 () Bool (= call_moesi.flby3 call_moesi.exclusive_mo))
(define-fun .def_900 () Bool (= call_moesi.flby2 call_moesi.modified_mo))
(define-fun .def_898 () Bool (= env call_Sofar.Sofar))
(define-fun .def_895 () Bool (= erreur_mo call_moesi.erreur_mo))
(define-fun .def_891 () Bool (= owned_mo call_moesi.owned_mo))
(define-fun .def_887 () Bool (= invalid_mo call_moesi.invalid_mo))
(define-fun .def_883 () Bool (= shared_mo call_moesi.shared_mo))
(define-fun .def_879 () Bool (= exclusive_mo call_moesi.exclusive_mo))
(define-fun .def_875 () Bool (= modified_mo call_moesi.modified_mo))
(define-fun .def_869 () Bool (not env))
(define-fun .def_870 () Bool (or flby .def_869))
(define-fun .def_871 () Bool (= _OK_ .def_870))
(define-fun .def_863 () Bool (= call_moesi.ite32 call_moesi.ite33))
(define-fun .def_864 () Bool (or param_etat_mo3 .def_863))
(define-fun .def_860 () Bool (= call_moesi.ite30 call_moesi.ite33))
(define-fun .def_838 () Bool (not param_etat_mo3))
(define-fun .def_861 () Bool (or .def_838 .def_860))
(define-fun .def_857 () Bool (= call_moesi.ite26 call_moesi.ite27))
(define-fun .def_858 () Bool (or param_etat_mo3 .def_857))
(define-fun .def_854 () Bool (= call_moesi.ite27 call_moesi.ite24))
(define-fun .def_855 () Bool (or .def_838 .def_854))
(define-fun .def_850 () Bool (= call_moesi.ite20 call_moesi.ite21))
(define-fun .def_851 () Bool (or param_etat_mo3 .def_850))
(define-fun .def_847 () Bool (= call_moesi.ite18 call_moesi.ite21))
(define-fun .def_848 () Bool (or .def_838 .def_847))
(define-fun .def_844 () Bool (= call_moesi.ite13 call_moesi.ite14))
(define-fun .def_845 () Bool (or param_etat_mo3 .def_844))
(define-fun .def_841 () Bool (= call_moesi.ite11 call_moesi.ite14))
(define-fun .def_842 () Bool (or .def_838 .def_841))
(define-fun .def_837 () Bool (= call_moesi.ite3 call_moesi.ite6))
(define-fun .def_839 () Bool (or .def_837 .def_838))
(define-fun .def_834 () Bool (= call_moesi.ite5 call_moesi.ite6))
(define-fun .def_836 () Bool (or .def_834 param_etat_mo3))
(define-fun .def_840 () Bool (and .def_836 .def_839))
(define-fun .def_843 () Bool (and .def_840 .def_842))
(define-fun .def_846 () Bool (and .def_843 .def_845))
(define-fun .def_849 () Bool (and .def_846 .def_848))
(define-fun .def_852 () Bool (and .def_849 .def_851))
(define-fun .def_856 () Bool (and .def_852 .def_855))
(define-fun .def_859 () Bool (and .def_856 .def_858))
(define-fun .def_862 () Bool (and .def_859 .def_861))
(define-fun .def_865 () Bool (and .def_862 .def_864))
(define-fun .def_830 () Bool (= call_moesi.ite34 call_moesi.ite33))
(define-fun .def_831 () Bool (or param_etat_mo1 .def_830))
(define-fun .def_826 () Bool (= call_moesi.ite29 call_moesi.ite34))
(define-fun .def_796 () Bool (not param_etat_mo1))
(define-fun .def_827 () Bool (or .def_796 .def_826))
(define-fun .def_821 () Bool (= call_moesi.ite28 call_moesi.ite27))
(define-fun .def_822 () Bool (or param_etat_mo1 .def_821))
(define-fun .def_817 () Bool (= call_moesi.ite23 call_moesi.ite28))
(define-fun .def_818 () Bool (or .def_796 .def_817))
(define-fun .def_812 () Bool (= call_moesi.ite22 call_moesi.ite21))
(define-fun .def_813 () Bool (or param_etat_mo1 .def_812))
(define-fun .def_808 () Bool (= call_moesi.ite17 call_moesi.ite22))
(define-fun .def_809 () Bool (or .def_796 .def_808))
(define-fun .def_803 () Bool (= call_moesi.ite15 call_moesi.ite16))
(define-fun .def_804 () Bool (or param_etat_mo1 .def_803))
(define-fun .def_800 () Bool (= call_moesi.ite9 call_moesi.ite16))
(define-fun .def_801 () Bool (or .def_796 .def_800))
(define-fun .def_795 () Bool (= call_moesi.ite call_moesi.ite8))
(define-fun .def_797 () Bool (or .def_795 .def_796))
(define-fun .def_792 () Bool (= call_moesi.ite7 call_moesi.ite8))
(define-fun .def_794 () Bool (or .def_792 param_etat_mo1))
(define-fun .def_798 () Bool (and .def_794 .def_797))
(define-fun .def_802 () Bool (and .def_798 .def_801))
(define-fun .def_805 () Bool (and .def_802 .def_804))
(define-fun .def_810 () Bool (and .def_805 .def_809))
(define-fun .def_814 () Bool (and .def_810 .def_813))
(define-fun .def_819 () Bool (and .def_814 .def_818))
(define-fun .def_823 () Bool (and .def_819 .def_822))
(define-fun .def_828 () Bool (and .def_823 .def_827))
(define-fun .def_832 () Bool (and .def_828 .def_831))
(define-fun .def_788 () Bool (= call_moesi.ite15 call_moesi.ite14))
(define-fun .def_789 () Bool (or param_etat_mo2 .def_788))
(define-fun .def_784 () Bool (= call_moesi.ite10 call_moesi.ite15))
(define-fun .def_779 () Bool (not param_etat_mo2))
(define-fun .def_785 () Bool (or .def_779 .def_784))
(define-fun .def_778 () Bool (= call_moesi.ite7 call_moesi.ite2))
(define-fun .def_780 () Bool (or .def_778 .def_779))
(define-fun .def_774 () Bool (= call_moesi.ite7 call_moesi.ite6))
(define-fun .def_776 () Bool (or .def_774 param_etat_mo2))
(define-fun .def_781 () Bool (and .def_776 .def_780))
(define-fun .def_786 () Bool (and .def_781 .def_785))
(define-fun .def_790 () Bool (and .def_786 .def_789))
(define-fun .def_833 () Bool (and .def_790 .def_832))
(define-fun .def_866 () Bool (and .def_833 .def_865))
(define-fun .def_872 () Bool (and .def_866 .def_871))
(define-fun .def_876 () Bool (and .def_872 .def_875))
(define-fun .def_880 () Bool (and .def_876 .def_879))
(define-fun .def_884 () Bool (and .def_880 .def_883))
(define-fun .def_888 () Bool (and .def_884 .def_887))
(define-fun .def_892 () Bool (and .def_888 .def_891))
(define-fun .def_896 () Bool (and .def_892 .def_895))
(define-fun .def_899 () Bool (and .def_896 .def_898))
(define-fun .def_901 () Bool (and .def_899 .def_900))
(define-fun .def_903 () Bool (and .def_901 .def_902))
(define-fun .def_905 () Bool (and .def_903 .def_904))
(define-fun .def_907 () Bool (and .def_905 .def_906))
(define-fun .def_909 () Bool (and .def_907 .def_908))
(define-fun .def_911 () Bool (and .def_909 .def_910))
(define-fun .def_925 () Bool (and .def_911 .def_924))
(define-fun .def_927 () Bool (and .def_925 .def_926))
(define-fun .def_770 () Bool (= call_excludes4.excludes call_Sofar.flby))
(define-fun .def_766 () Bool (= call_moesi.flby6 0))
(define-fun .def_763 () Bool (= param_init_invalid_mo call_moesi.flby5))
(define-fun .def_759 () Bool (= call_moesi.flby4 0))
(define-fun .def_756 () Bool (= call_moesi.flby3 0))
(define-fun .def_753 () Bool (= call_moesi.flby2 0))
(define-fun .def_750 () Bool (not call_moesi.flby))
(define-fun .def_745 () Bool (= call_moesi.ite31 0))
(define-fun .def_737 () Bool (not call_moesi.garde_mo4))
(define-fun .def_746 () Bool (or .def_737 .def_745))
(define-fun .def_742 () Bool (= call_moesi.ite19 0))
(define-fun .def_743 () Bool (or .def_737 .def_742))
(define-fun .def_739 () Bool (= call_moesi.ite4 0))
(define-fun .def_740 () Bool (or .def_737 .def_739))
(define-fun .def_735 () Bool (= call_moesi.ite12 1))
(define-fun .def_738 () Bool (or .def_735 .def_737))
(define-fun .def_741 () Bool (and .def_738 .def_740))
(define-fun .def_744 () Bool (and .def_741 .def_743))
(define-fun .def_747 () Bool (and .def_744 .def_746))
(define-fun .def_731 () Bool (= call_moesi.ite30 0))
(define-fun .def_720 () Bool (not call_moesi.garde_mo3))
(define-fun .def_732 () Bool (or .def_720 .def_731))
(define-fun .def_727 () Bool (= call_moesi.ite18 0))
(define-fun .def_728 () Bool (or .def_720 .def_727))
(define-fun .def_723 () Bool (= call_moesi.ite3 0))
(define-fun .def_724 () Bool (or .def_720 .def_723))
(define-fun .def_718 () Bool (= call_moesi.ite11 1))
(define-fun .def_721 () Bool (or .def_718 .def_720))
(define-fun .def_725 () Bool (and .def_721 .def_724))
(define-fun .def_729 () Bool (and .def_725 .def_728))
(define-fun .def_733 () Bool (and .def_729 .def_732))
(define-fun .def_713 () Bool (= call_moesi.ite 0))
(define-fun .def_710 () Bool (not call_moesi.garde_mo1))
(define-fun .def_714 () Bool (or .def_710 .def_713))
(define-fun .def_708 () Bool (= call_moesi.ite9 0))
(define-fun .def_711 () Bool (or .def_708 .def_710))
(define-fun .def_715 () Bool (and .def_711 .def_714))
(define-fun .def_702 () Bool (= call_moesi.ite31 call_moesi.ite32))
(define-fun .def_683 () Bool (not param_etat_mo4))
(define-fun .def_703 () Bool (or .def_683 .def_702))
(define-fun .def_697 () Bool (= call_moesi.ite25 call_moesi.ite26))
(define-fun .def_698 () Bool (or .def_683 .def_697))
(define-fun .def_692 () Bool (= call_moesi.ite19 call_moesi.ite20))
(define-fun .def_693 () Bool (or .def_683 .def_692))
(define-fun .def_687 () Bool (= call_moesi.ite4 call_moesi.ite5))
(define-fun .def_688 () Bool (or .def_683 .def_687))
(define-fun .def_681 () Bool (= call_moesi.ite12 call_moesi.ite13))
(define-fun .def_684 () Bool (or .def_681 .def_683))
(define-fun .def_689 () Bool (and .def_684 .def_688))
(define-fun .def_694 () Bool (and .def_689 .def_693))
(define-fun .def_699 () Bool (and .def_694 .def_698))
(define-fun .def_704 () Bool (and .def_699 .def_703))
(define-fun .def_706 () Bool (and .def_704 flby))
(define-fun .def_716 () Bool (and .def_706 .def_715))
(define-fun .def_734 () Bool (and .def_716 .def_733))
(define-fun .def_748 () Bool (and .def_734 .def_747))
(define-fun .def_751 () Bool (and .def_748 .def_750))
(define-fun .def_754 () Bool (and .def_751 .def_753))
(define-fun .def_757 () Bool (and .def_754 .def_756))
(define-fun .def_760 () Bool (and .def_757 .def_759))
(define-fun .def_764 () Bool (and .def_760 .def_763))
(define-fun .def_767 () Bool (and .def_764 .def_766))
(define-fun .def_771 () Bool (and .def_767 .def_770))
(define-fun .def_928 () Bool (and .def_771 .def_927))
(assert .def_928)
